w = 26;
n = 22;
measures = [|3, 19,
|4, 14,
|3, 17,
|3, 16,
|3, 15,
|4, 11,
|3, 14,
|3, 12,
|3, 11,
|4, 8,
|3, 10,
|4, 7,
|3, 9,
|3, 8,
|3, 7,
|4, 5,
|3, 6,
|4, 4,
|3, 5,
|3, 4,
|4, 3,
|3, 3,
|];
initial_x = [0, 3, 7, 10, 13, 16, 20, 23, 0, 3, 7, 10, 14, 17, 20, 0, 4, 7, 11, 14, 17, 21];
initial_y = [0, 0, 0, 0, 0, 0, 0, 0, 19, 19, 19, 19, 19, 19, 19, 30, 30, 30, 30, 30, 30, 30];